(set-logic ALL_SUPPORTED)
(set-option :produce-models true)
(declare-fun Containment () (Set (Tuple String String)))
(declare-fun Containment_Prohibition () (Set (Tuple String String)))
(declare-fun Tclosure () (Set (Tuple String String)))
(declare-fun Tclosure_Prohibition () (Set (Tuple String String)))
(declare-fun Associations () (Set (Tuple String String String)))
(declare-fun UA_U_Reachability () (Set (Tuple String String)))
(declare-fun AT_Reachability () (Set (Tuple String String)))

(assert (= Associations (insert(mkTuple "PI" "delete-copi" "CoPI") 
(mkTuple "PI" "add-copi" "CoPI") 
(mkTuple "PI" "ViewLog" "Audit Log") 
(mkTuple "PI" "write" "PIEditable") 
(mkTuple "PI" "Delete" "PDSWhole") 
(mkTuple "PI" "Submit" "PDSWhole") 
(mkTuple "CoPI" "write" "CoPIEditable") 
(mkTuple "CoPI" "delete-sp" "SP") 
(mkTuple "CoPI" "add-sp" "SP") 
(mkTuple "SP" "read" "PDSSections") 
(singleton (mkTuple "PIEligible" "create" "PDSWhole")))))

(assert (= Containment (insert (mkTuple "CoPI" "CoPI") 
(mkTuple "SP" "SP") 
(mkTuple "ApprovalInfo" "ApprovalInfo") 
(mkTuple "COI" "COI") 
(mkTuple "DeanCOASUser" "Dean COAS") 
(mkTuple "ChairApproval" "ChairApproval") 
(mkTuple "Research Director" "Research Director") 
(mkTuple "CoPIInfo" "CoPIInfo") 
(mkTuple "SPEligible" "EligibilityPolicyClass") 
(mkTuple "BMApproval" "BMApproval") 
(mkTuple "BMECE" "Dean COE") 
(mkTuple "Dean COE" "AcademicUnitsPolicyClass") 
(mkTuple "raUser" "Research Admin") 
(mkTuple "COI" "CoPIEditable") 
(mkTuple "OSPInfo" "PDSSections") 
(mkTuple "Tenured Faculty" "TenuredTenureTrack Faculty") 
(mkTuple "IRBApproval" "IRBApproval") 
(mkTuple "Dean COAS" "Dean COAS") 
(mkTuple "samer" "Tenured Faculty") 
(mkTuple "Audit Log" "EditingPolicyClass") 
(mkTuple "ChairCHEM" "ChairCHEM") 
(mkTuple "nazmul" "DeptCS") 
(mkTuple "Teaching Faculty" "Teaching Faculty") 
(mkTuple "IRBOfficer" "AdministrationUnitsPolicyClass") 
(mkTuple "Research Director" "AdministrationUnitsPolicyClass") 
(mkTuple "samer" "DeptECE") 
(mkTuple "UnivCommitmentsInfo" "CoPIEditable") 
(mkTuple "Chair" "EditingPolicyClass") 
(mkTuple "Research Faculty" "Research Faculty") 
(mkTuple "BMPHY" "BMPHY") 
(mkTuple "DeptCHEM" "DeptCHEM") 
(mkTuple "Clinic Faculty" "Clinic Faculty") 
(mkTuple "Additional Info" "Additional Info") 
(mkTuple "Business Manager" "EditingPolicyClass") 
(mkTuple "CostShare Info" "CoPIEditable") 
(mkTuple "CoPIEditable" "PDSSections") 
(mkTuple "Research Faculty" "NonTenureTrack Faculty") 
(mkTuple "CoPIEligible" "CoPIEligible") 
(mkTuple "ChairPHY" "ChairPHY") 
(mkTuple "Additional Info" "CoPIEditable") 
(mkTuple "TenuredTenureTrack Faculty" "PIEligible") 
(mkTuple "SPEligible" "SPEligible") 
(mkTuple "DeanApproval" "DeanApproval") 
(mkTuple "PIEligible" "PIEligible") 
(mkTuple "Budget Info" "Budget Info") 
(mkTuple "PDSWhole" "PDSWhole") 
(mkTuple "NonTenureTrack Faculty" "NonTenureTrack Faculty") 
(mkTuple "Collaboration Info" "Collaboration Info") 
(mkTuple "irbUser" "IRBOfficer") 
(mkTuple "PIInfo" "PIInfo") 
(mkTuple "PDSWhole" "EditingPolicyClass") 
(mkTuple "ChairCSUser" "ChairCS") 
(mkTuple "ChairCS" "ChairCS") 
(mkTuple "PDSWhole" "EligibilityPolicyClass") 
(mkTuple "bmChemUser" "BMCHEM") 
(mkTuple "UnivCommitmentsInfo" "UnivCommitmentsInfo") 
(mkTuple "Project Info" "Project Info") 
(mkTuple "SPInfo" "Investigator Info") 
(mkTuple "tomtom" "DeptCHEM") 
(mkTuple "Dean COE" "Dean COE") 
(mkTuple "Budget Info" "PIEditable") 
(mkTuple "bmECEUser" "BMECE") 
(mkTuple "Adjunct Faculty" "SPEligible") 
(mkTuple "Research Admin" "EditingPolicyClass") 
(mkTuple "RDApproval" "ApprovalInfo") 
(mkTuple "IRBOfficer" "IRBOfficer") 
(mkTuple "CoPIInfo" "Investigator Info") 
(mkTuple "ChairCS" "BMCS") 
(mkTuple "ChairCHEM" "BMCHEM") 
(mkTuple "PIInfo" "Investigator Info") 
(mkTuple "DeanCOEUser" "Dean COE") 
(mkTuple "Proprietary Info" "CoPIEditable") 
(mkTuple "ChairPHYUser" "ChairPHY") 
(mkTuple "Clinic Faculty" "NonTenureTrack Faculty") 
(mkTuple "RAApproval" "ApprovalInfo") 
(mkTuple "Investigator Info" "PDSSections") 
(mkTuple "bmPHYUser" "BMPHY") 
(mkTuple "BMPHY" "Dean COAS") 
(mkTuple "ChairChemUser" "ChairCHEM") 
(mkTuple "Research Director" "EditingPolicyClass") 
(mkTuple "Research Admin" "AdministrationUnitsPolicyClass") 
(mkTuple "Adjunct Faculty" "Adjunct Faculty") 
(mkTuple "ChairECE" "ChairECE") 
(mkTuple "RDApproval" "RDApproval") 
(mkTuple "ChairECEUser" "ChairECE") 
(mkTuple "bmCSUser" "BMCS") 
(mkTuple "DeptCS" "ChairCS") 
(mkTuple "BMCS" "Dean COE") 
(mkTuple "tomtom" "Clinic Faculty") 
(mkTuple "liliana" "DeptCS") 
(mkTuple "PI" "CoPI") 
(mkTuple "Dean COAS" "AcademicUnitsPolicyClass") 
(mkTuple "Collaboration Info" "CoPIEditable") 
(mkTuple "TenureTrack Faculty" "TenureTrack Faculty") 
(mkTuple "PI" "PI") 
(mkTuple "ChairPHY" "BMPHY") 
(mkTuple "Business Manager" "Business Manager") 
(mkTuple "ApprovalInfo" "PDSSections") 
(mkTuple "IRBOfficer" "EditingPolicyClass") 
(mkTuple "Investigator Info" "Investigator Info") 
(mkTuple "vlad" "DeptCS") 
(mkTuple "BMCHEM" "Dean COAS") 
(mkTuple "PDSSections" "EditingPolicyClass") 
(mkTuple "Research Faculty" "PIEligible") 
(mkTuple "Chair" "Chair") 
(mkTuple "PDSSections" "PDSSections") 
(mkTuple "DeptPHY" "ChairPHY") 
(mkTuple "IRBApproval" "ApprovalInfo") 
(mkTuple "DeptPHY" "DeptPHY") 
(mkTuple "SP" "EditingPolicyClass") 
(mkTuple "NickC" "TenureTrack Faculty") 
(mkTuple "Dean" "Dean") 
(mkTuple "Project Info" "PIEditable") 
(mkTuple "TenureTrack Faculty" "TenuredTenureTrack Faculty") 
(mkTuple "TenuredTenureTrack Faculty" "TenuredTenureTrack Faculty") 
(mkTuple "nazmul" "Research Faculty") 
(mkTuple "rdUser" "Research Director") 
(mkTuple "Compliance Info" "Compliance Info") 
(mkTuple "PIEditable" "PIEditable") 
(mkTuple "DeptECE" "DeptECE") 
(mkTuple "Signature Info" "Signature Info") 
(mkTuple "ChairApproval" "ApprovalInfo") 
(mkTuple "BMECE" "BMECE") 
(mkTuple "Compliance Info" "CoPIEditable") 
(mkTuple "NickC" "DeptPHY") 
(mkTuple "ChairECE" "BMECE") 
(mkTuple "Tenured Faculty" "Tenured Faculty") 
(mkTuple "BMCS" "BMCS") 
(mkTuple "Signature Info" "CoPIEditable") 
(mkTuple "CoPI" "SP") 
(mkTuple "CoPIEligible" "SPEligible") 
(mkTuple "NonTenureTrack Faculty" "CoPIEligible") 
(mkTuple "OSPInfo" "OSPInfo") 
(mkTuple "DeptCHEM" "ChairCHEM") 
(mkTuple "liliana" "Teaching Faculty") 
(mkTuple "DeptECE" "ChairECE") 
(mkTuple "CostShare Info" "CostShare Info") 
(mkTuple "RAApproval" "RAApproval") 
(mkTuple "Proprietary Info" "Proprietary Info") 
(mkTuple "vlad" "Adjunct Faculty") 
(mkTuple "Teaching Faculty" "NonTenureTrack Faculty") 
(mkTuple "DeanApproval" "ApprovalInfo") 
(mkTuple "SPInfo" "SPInfo") 
(mkTuple "PIEditable" "PDSSections") 
(mkTuple "Research Admin" "Research Admin") 
(mkTuple "PIEligible" "CoPIEligible") 
(mkTuple "DeptCS" "DeptCS") 
(mkTuple "BMCHEM" "BMCHEM") 
(mkTuple "Audit Log" "Audit Log") 
(mkTuple "Dean" "EditingPolicyClass") 
(mkTuple "CoPIEditable" "CoPIEditable") 
(singleton (mkTuple "BMApproval" "ApprovalInfo")))))

(assert (= Containment_Prohibition (insert (mkTuple "PI" "CoPI") 
(mkTuple "Dean COAS" "AcademicUnitsPolicyClass") 
(mkTuple "Collaboration Info" "CoPIEditable") 
(mkTuple "DeanCOASUser" "Dean COAS") 
(mkTuple "SPEligible" "EligibilityPolicyClass") 
(mkTuple "BMECE" "Dean COE") 
(mkTuple "ChairPHY" "BMPHY") 
(mkTuple "Dean COE" "AcademicUnitsPolicyClass") 
(mkTuple "raUser" "Research Admin") 
(mkTuple "ApprovalInfo" "PDSSections") 
(mkTuple "IRBOfficer" "EditingPolicyClass") 
(mkTuple "COI" "CoPIEditable") 
(mkTuple "OSPInfo" "PDSSections") 
(mkTuple "Tenured Faculty" "TenuredTenureTrack Faculty") 
(mkTuple "vlad" "DeptCS") 
(mkTuple "samer" "Tenured Faculty") 
(mkTuple "BMCHEM" "Dean COAS") 
(mkTuple "PDSSections" "EditingPolicyClass") 
(mkTuple "Audit Log" "EditingPolicyClass") 
(mkTuple "Research Faculty" "PIEligible") 
(mkTuple "nazmul" "DeptCS") 
(mkTuple "IRBOfficer" "AdministrationUnitsPolicyClass") 
(mkTuple "Research Director" "AdministrationUnitsPolicyClass") 
(mkTuple "samer" "DeptECE") 
(mkTuple "DeptPHY" "ChairPHY") 
(mkTuple "IRBApproval" "ApprovalInfo") 
(mkTuple "UnivCommitmentsInfo" "CoPIEditable") 
(mkTuple "Chair" "EditingPolicyClass") 
(mkTuple "SP" "EditingPolicyClass") 
(mkTuple "NickC" "TenureTrack Faculty") 
(mkTuple "Business Manager" "EditingPolicyClass") 
(mkTuple "Project Info" "PIEditable") 
(mkTuple "CostShare Info" "CoPIEditable") 
(mkTuple "CoPIEditable" "PDSSections") 
(mkTuple "TenureTrack Faculty" "TenuredTenureTrack Faculty") 
(mkTuple "Research Faculty" "NonTenureTrack Faculty") 
(mkTuple "nazmul" "Research Faculty") 
(mkTuple "Additional Info" "CoPIEditable") 
(mkTuple "TenuredTenureTrack Faculty" "PIEligible") 
(mkTuple "rdUser" "Research Director") 
(mkTuple "irbUser" "IRBOfficer") 
(mkTuple "ChairApproval" "ApprovalInfo") 
(mkTuple "Compliance Info" "CoPIEditable") 
(mkTuple "PDSWhole" "EditingPolicyClass") 
(mkTuple "NickC" "DeptPHY") 
(mkTuple "ChairCSUser" "ChairCS") 
(mkTuple "PDSWhole" "EligibilityPolicyClass") 
(mkTuple "bmChemUser" "BMCHEM") 
(mkTuple "SPInfo" "Investigator Info") 
(mkTuple "tomtom" "DeptCHEM") 
(mkTuple "ChairECE" "BMECE") 
(mkTuple "Signature Info" "CoPIEditable") 
(mkTuple "Budget Info" "PIEditable") 
(mkTuple "CoPI" "SP") 
(mkTuple "CoPIEligible" "SPEligible") 
(mkTuple "bmECEUser" "BMECE") 
(mkTuple "Adjunct Faculty" "SPEligible") 
(mkTuple "Research Admin" "EditingPolicyClass") 
(mkTuple "RDApproval" "ApprovalInfo") 
(mkTuple "NonTenureTrack Faculty" "CoPIEligible") 
(mkTuple "CoPIInfo" "Investigator Info") 
(mkTuple "ChairCS" "BMCS") 
(mkTuple "DeptCHEM" "ChairCHEM") 
(mkTuple "liliana" "Teaching Faculty") 
(mkTuple "ChairCHEM" "BMCHEM") 
(mkTuple "DeptECE" "ChairECE") 
(mkTuple "PIInfo" "Investigator Info") 
(mkTuple "vlad" "Adjunct Faculty") 
(mkTuple "Teaching Faculty" "NonTenureTrack Faculty") 
(mkTuple "DeanCOEUser" "Dean COE") 
(mkTuple "DeanApproval" "ApprovalInfo") 
(mkTuple "Proprietary Info" "CoPIEditable") 
(mkTuple "PIEditable" "PDSSections") 
(mkTuple "ChairPHYUser" "ChairPHY") 
(mkTuple "Clinic Faculty" "NonTenureTrack Faculty") 
(mkTuple "RAApproval" "ApprovalInfo") 
(mkTuple "PIEligible" "CoPIEligible") 
(mkTuple "Investigator Info" "PDSSections") 
(mkTuple "bmPHYUser" "BMPHY") 
(mkTuple "BMPHY" "Dean COAS") 
(mkTuple "ChairChemUser" "ChairCHEM") 
(mkTuple "Research Director" "EditingPolicyClass") 
(mkTuple "Research Admin" "AdministrationUnitsPolicyClass") 
(mkTuple "Dean" "EditingPolicyClass") 
(mkTuple "ChairECEUser" "ChairECE") 
(mkTuple "bmCSUser" "BMCS") 
(mkTuple "DeptCS" "ChairCS") 
(mkTuple "BMCS" "Dean COE") 
(mkTuple "BMApproval" "ApprovalInfo") 
(mkTuple "tomtom" "Clinic Faculty") 
(singleton (mkTuple "liliana" "DeptCS")))))

(assert (= Tclosure (tclosure Containment)))
(assert (= Tclosure_Prohibition (tclosure Containment_Prohibition)))

(declare-fun SetToCheckUA () (Set (Tuple String String)))
(declare-fun SetToCheckAT () (Set (Tuple String String)))

(assert (= SetToCheckUA (insert (mkTuple "Research Admin" "Research Admin") 
(mkTuple "tomtom" "tomtom") 
(mkTuple "DeptECE" "DeptECE") 
(mkTuple "TenureTrack Faculty" "TenureTrack Faculty") 
(mkTuple "CoPIEligible" "CoPIEligible") 
(mkTuple "Dean COE" "Dean COE") 
(mkTuple "ChairCS" "ChairCS") 
(mkTuple "bmChemUser" "bmChemUser") 
(mkTuple "DeanCOEUser" "DeanCOEUser") 
(mkTuple "raUser" "raUser") 
(mkTuple "Research Faculty" "Research Faculty") 
(mkTuple "PIEligible" "PIEligible") 
(mkTuple "CoPI" "CoPI") 
(mkTuple "Dean COAS" "Dean COAS") 
(mkTuple "liliana" "liliana") 
(mkTuple "Dean" "Dean") 
(mkTuple "rdUser" "rdUser") 
(mkTuple "bmCSUser" "bmCSUser") 
(mkTuple "Adjunct Faculty" "Adjunct Faculty") 
(mkTuple "DeptPHY" "DeptPHY") 
(mkTuple "irbUser" "irbUser") 
(mkTuple "ChairCHEM" "ChairCHEM") 
(mkTuple "Chair" "Chair") 
(mkTuple "bmECEUser" "bmECEUser") 
(mkTuple "Tenured Faculty" "Tenured Faculty") 
(mkTuple "samer" "samer") 
(mkTuple "ChairCSUser" "ChairCSUser") 
(mkTuple "Research Director" "Research Director") 
(mkTuple "DeanCOASUser" "DeanCOASUser") 
(mkTuple "bmPHYUser" "bmPHYUser") 
(mkTuple "ChairChemUser" "ChairChemUser") 
(mkTuple "DeptCS" "DeptCS") 
(mkTuple "SPEligible" "SPEligible") 
(mkTuple "ChairECE" "ChairECE") 
(mkTuple "NickC" "NickC") 
(mkTuple "SP" "SP") 
(mkTuple "BMCS" "BMCS") 
(mkTuple "BMCHEM" "BMCHEM") 
(mkTuple "ChairECEUser" "ChairECEUser") 
(mkTuple "ChairPHY" "ChairPHY") 
(mkTuple "NonTenureTrack Faculty" "NonTenureTrack Faculty") 
(mkTuple "Teaching Faculty" "Teaching Faculty") 
(mkTuple "IRBOfficer" "IRBOfficer") 
(mkTuple "vlad" "vlad") 
(mkTuple "BMPHY" "BMPHY") 
(mkTuple "DeptCHEM" "DeptCHEM") 
(mkTuple "ChairPHYUser" "ChairPHYUser") 
(mkTuple "Clinic Faculty" "Clinic Faculty") 
(mkTuple "nazmul" "nazmul") 
(mkTuple "Business Manager" "Business Manager") 
(mkTuple "PI" "PI") 
(mkTuple "TenuredTenureTrack Faculty" "TenuredTenureTrack Faculty") 
(mkTuple "BMECE" "BMECE") 
(singleton (mkTuple "BMECE" "BMECE")))))

(assert (= SetToCheckAT (insert (mkTuple "Research Admin" "Research Admin") 
(mkTuple "tomtom" "tomtom") 
(mkTuple "OSPInfo" "OSPInfo") 
(mkTuple "DeptECE" "DeptECE") 
(mkTuple "TenureTrack Faculty" "TenureTrack Faculty") 
(mkTuple "CoPIEligible" "CoPIEligible") 
(mkTuple "SPInfo" "SPInfo") 
(mkTuple "Dean COE" "Dean COE") 
(mkTuple "ApprovalInfo" "ApprovalInfo") 
(mkTuple "ChairCS" "ChairCS") 
(mkTuple "bmChemUser" "bmChemUser") 
(mkTuple "DeanCOEUser" "DeanCOEUser") 
(mkTuple "raUser" "raUser") 
(mkTuple "Research Faculty" "Research Faculty") 
(mkTuple "Budget Info" "Budget Info") 
(mkTuple "PIEligible" "PIEligible") 
(mkTuple "CoPI" "CoPI") 
(mkTuple "RDApproval" "RDApproval") 
(mkTuple "Dean COAS" "Dean COAS") 
(mkTuple "PDSSections" "PDSSections") 
(mkTuple "PIEditable" "PIEditable") 
(mkTuple "liliana" "liliana") 
(mkTuple "BMApproval" "BMApproval") 
(mkTuple "Dean" "Dean") 
(mkTuple "rdUser" "rdUser") 
(mkTuple "bmCSUser" "bmCSUser") 
(mkTuple "Adjunct Faculty" "Adjunct Faculty") 
(mkTuple "Compliance Info" "Compliance Info") 
(mkTuple "PDSWhole" "PDSWhole") 
(mkTuple "DeptPHY" "DeptPHY") 
(mkTuple "CoPIInfo" "CoPIInfo") 
(mkTuple "ChairApproval" "ChairApproval") 
(mkTuple "Signature Info" "Signature Info") 
(mkTuple "irbUser" "irbUser") 
(mkTuple "ChairCHEM" "ChairCHEM") 
(mkTuple "CostShare Info" "CostShare Info") 
(mkTuple "Chair" "Chair") 
(mkTuple "Collaboration Info" "Collaboration Info") 
(mkTuple "Proprietary Info" "Proprietary Info") 
(mkTuple "bmECEUser" "bmECEUser") 
(mkTuple "Tenured Faculty" "Tenured Faculty") 
(mkTuple "samer" "samer") 
(mkTuple "ChairCSUser" "ChairCSUser") 
(mkTuple "Research Director" "Research Director") 
(mkTuple "DeanCOASUser" "DeanCOASUser") 
(mkTuple "bmPHYUser" "bmPHYUser") 
(mkTuple "ChairChemUser" "ChairChemUser") 
(mkTuple "DeanApproval" "DeanApproval") 
(mkTuple "Project Info" "Project Info") 
(mkTuple "UnivCommitmentsInfo" "UnivCommitmentsInfo") 
(mkTuple "DeptCS" "DeptCS") 
(mkTuple "SPEligible" "SPEligible") 
(mkTuple "ChairECE" "ChairECE") 
(mkTuple "COI" "COI") 
(mkTuple "NickC" "NickC") 
(mkTuple "SP" "SP") 
(mkTuple "BMCS" "BMCS") 
(mkTuple "BMCHEM" "BMCHEM") 
(mkTuple "ChairECEUser" "ChairECEUser") 
(mkTuple "ChairPHY" "ChairPHY") 
(mkTuple "Audit Log" "Audit Log") 
(mkTuple "Investigator Info" "Investigator Info") 
(mkTuple "PIInfo" "PIInfo") 
(mkTuple "NonTenureTrack Faculty" "NonTenureTrack Faculty") 
(mkTuple "Teaching Faculty" "Teaching Faculty") 
(mkTuple "IRBOfficer" "IRBOfficer") 
(mkTuple "vlad" "vlad") 
(mkTuple "BMPHY" "BMPHY") 
(mkTuple "DeptCHEM" "DeptCHEM") 
(mkTuple "RAApproval" "RAApproval") 
(mkTuple "CoPIEditable" "CoPIEditable") 
(mkTuple "ChairPHYUser" "ChairPHYUser") 
(mkTuple "Clinic Faculty" "Clinic Faculty") 
(mkTuple "nazmul" "nazmul") 
(mkTuple "Additional Info" "Additional Info") 
(mkTuple "Business Manager" "Business Manager") 
(mkTuple "PI" "PI") 
(mkTuple "TenuredTenureTrack Faculty" "TenuredTenureTrack Faculty") 
(mkTuple "BMECE" "BMECE") 
(mkTuple "IRBApproval" "IRBApproval") 
(singleton (mkTuple "IRBApproval" "IRBApproval")))))

(assert (= UA_U_Reachability (join SetToCheckUA Tclosure )))
(assert (= AT_Reachability (join SetToCheckAT Tclosure )))
(declare-fun AssociationsForUA () (Set (Tuple String String String)))
(assert (= AssociationsForUA (join UA_U_Reachability Associations) ))
(declare-fun FinalJoin () (Set (Tuple String String String)))
(assert (= FinalJoin (join AssociationsForUA (transpose AT_Reachability)) ))

(declare-fun AssociationsForProhibitions () (Set (Tuple String String String)))

(assert (= AssociationsForProhibitions (insert(mkTuple "delete-copi" "delete-copi" "CoPI") 
(mkTuple "add-copi" "add-copi" "CoPI") 
(mkTuple "ViewLog" "ViewLog" "Audit Log") 
(mkTuple "write" "write" "PIEditable") 
(mkTuple "Delete" "Delete" "PDSWhole") 
(mkTuple "Submit" "Submit" "PDSWhole") 
(mkTuple "write" "write" "CoPIEditable") 
(mkTuple "delete-sp" "delete-sp" "SP") 
(mkTuple "add-sp" "add-sp" "SP") 
(mkTuple "read" "read" "PDSSections") 
(singleton (mkTuple "create" "create" "PDSWhole")))))


(check-sat)
(get-model)
(get-value (FinalJoin))